<number of tasks>
50

<cycle time>
1000

<order strength>
0.601


<task times>
1 111
2 107
3 277
4 32
5 28
6 195
7 321
8 479
9 111
10 33
11 131
12 22
13 102
14 503
15 304
16 82
17 192
18 275
19 234
20 240
21 159
22 88
23 210
24 225
25 123
26 523
27 110
28 166
29 190
30 251
31 165
32 276
33 72
34 74
35 380
36 104
37 378
38 41
39 340
40 465
41 208
42 95
43 89
44 513
45 166
46 161
47 588
48 77
49 92
50 196

<precedence relations>
1,5
1,7
1,19
2,9
3,6
3,7
3,8
4,6
4,19
5,11
6,10
6,12
6,13
7,15
7,25
8,13
8,14
9,13
9,14
9,15
10,16
11,17
12,18
13,23
13,25
14,19
15,21
16,21
17,21
18,21
19,20
19,27
19,32
20,22
21,23
22,25
23,24
23,26
23,27
23,28
24,29
25,35
26,32
26,39
27,31
28,30
28,31
29,34
30,33
30,35
30,37
30,39
31,38
31,45
32,35
32,36
32,38
33,40
34,44
35,41
35,42
35,43
37,45
38,50
40,50
41,46
42,47
43,48
44,49

<end>
